% File represents an instance of a Composite Structure problem to be solved by a CP framework
% Created on 2025-03-26 10:42:06.234
T = 50;
n = 36;
m = 60;
edges = [(1, 2),
(7, 8),
(13, 14),
(19, 20),
(25, 26),
(32, 31),
(2, 3),
(8, 9),
(14, 15),
(20, 21),
(26, 27),
(32, 33),
(3, 4),
(9, 10),
(15, 16),
(22, 21),
(28, 27),
(34, 33),
(4, 5),
(10, 11),
(16, 17),
(22, 23),
(29, 28),
(35, 34),
(6, 5),
(12, 11),
(18, 17),
(24, 23),
(29, 30),
(35, 36),
(1, 7),
(7, 13),
(13, 19),
(19, 25),
(25, 31),
(2, 8),
(8, 14),
(14, 20),
(20, 26),
(32, 26),
(3, 9),
(9, 15),
(15, 21),
(21, 27),
(33, 27),
(4, 10),
(10, 16),
(16, 22),
(22, 28),
(34, 28),
(5, 11),
(11, 17),
(17, 23),
(29, 23),
(35, 29),
(6, 12),
(12, 18),
(18, 24),
(24, 30),
(36, 30)];
counts = [|4, 18, 4, 24,
|2, 18, 2, 22,
|2, 18, 2, 16,
|2, 16, 2, 14,
|2, 10, 2, 14,
|2, 16, 2, 14,
|4, 18, 4, 18,
|2, 18, 2, 16,
|2, 16, 2, 16,
|2, 14, 2, 14,
|2, 10, 2, 12,
|2, 16, 2, 12,
|4, 14, 4, 16,
|2, 14, 2, 14,
|2, 14, 2, 12,
|2, 14, 2, 10,
|2, 10, 2, 10,
|2, 12, 2, 12,
|4, 12, 4, 12,
|2, 10, 2, 12,
|2, 10, 2, 10,
|2, 12, 2, 10,
|2, 8, 2, 10,
|2, 12, 2, 10,
|4, 12, 4, 6,
|2, 10, 2, 6,
|2, 8, 2, 6,
|2, 10, 2, 8,
|2, 10, 2, 10,
|2, 10, 2, 8,
|4, 8, 4, 6,
|4, 10, 4, 8,
|4, 8, 4, 8,
|4, 10, 4, 8,
|4, 10, 4, 10,
|2, 10, 2, 10|];
